#definition

# set
set V := C1 C2 C3 C4 C5 ; 	# customer set
set F := F6 F7 F8 F9 F6_1 F6_2 F7_1 F7_2 F8_1 F8_2 F9_1 F9_2 ;#recharging & battery swapping station
set D0 :=N0;
set Dσ :=Nσ;


# param
param CV := 50;    		# ECV fixed cost(Topic Given)
param C := 200;   		# ECV max load
param Q := 77.75; 		# ECV/BSV battery level
param h := 1;     		# ECV consumption

param CB := 60;    		# BSV fixed cost(Topic Given)
param Qplun := 5;       # BSV max load(battery)
param hplun := 1;     	# BSV consumption
param W := 155.50;		# BSV battery level

param Cde := 1;    		# ECV cost per unit distance
param Cdb := 1;    		# BSV cost per unit distance
param lamda := 3.00;	# battery swap time
param Cb :=8 ;  	    # battery swap cost(BSS/BSV)
param n :=5;	   		# number of customers
param g :=1.17 ;     	# the recharging rate of ECV 



# customer demend
param m :=
N0 0
C1 30
C2 10
C3 35
C4 14
C5 20
F6 0
F7 0
F8 0
F9 0
F6_1 0
F6_2 0
F7_1 0
F7_2 0
F8_1 0
F8_2 0
F9_1 0
F9_2 0
Nσ 0;

param e :=
N0 0
C1 83
C2 45
C3 104
C4 30
C5 39
F6 0
F7 0
F8 0
F9 0
F6_1 0
F6_2 0
F7_1 0
F7_2 0
F8_1 0
F8_2 0
F9_1 0
F9_2 0
Nσ 0;

param l :=
N0 240
C1 168
C2 161
C3 165
C4 129
C5 163
F6 240
F7 240
F8 240
F9 240
F6_1 240
F6_2 240
F7_1 240
F7_2 240
F8_1 240
F8_2 240
F9_1 240
F9_2 240
Nσ 240;

param s :=
N0 0
C1 10
C2 10
C3 10
C4 10
C5 10
F6 0
F7 0
F8 0
F9 0
F6_1 0
F6_2 0
F7_1 0
F7_2 0
F8_1 0
F8_2 0
F9_1 0
F9_2 0
Nσ 0;

param d : N0 C1 C2 C3 C4 C5 F6 F7 F8 F9 F6_1 F6_2 F7_1 F7_2 F8_1 F8_2 F9_1 F9_2 Nσ :=
N0 0.0000 47.4342 45.0000 48.1664 25.4951 39.2938 0.0000 37.2022 42.0595 42.0595 0.0000 0.0000 37.2022 37.2022 42.0595 42.0595 42.0595 42.0595 0.0000
C1 47.4342 0.0000 54.0833 82.7647 28.2843 83.1505 47.4342 75.3260 63.1585 9.4340 47.4342 47.4342 75.3260 75.3260 63.1585 63.1585 9.4340 9.4340 47.4342
C2 45.0000 54.0833 0.0000 38.2753 55.9017 51.6624 45.0000 37.8021 13.9284 44.6542 45.0000 45.0000 37.8021 37.8021 13.9284 13.9284 44.6542 44.6542 45.0000
C3 48.1664 82.7647 38.2753 0.0000 71.3442 22.0907 48.1664 11.6619 24.3516 73.9797 48.1664 48.1664 11.6619 11.6619 24.3516 24.3516 73.9797 73.9797 48.1664
C4 25.4951 28.2843 55.9017 71.3442 0.0000 64.7611 25.4951 61.2699 58.8982 27.7308 25.4951 25.4951 61.2699 61.2699 58.8982 58.8982 27.7308 27.7308 25.4951
C5 39.2938 83.1505 51.6624 22.0907 64.7611 0.0000 39.2938 14.4222 39.0512 75.6637 39.2938 39.2938 14.4222 14.4222 39.0512 39.0512 75.6637 75.6637 39.2938
F6 0.0000 47.4342 45.0000 48.1664 25.4951 39.2938 0.0000 37.2022 42.0595 42.0595 0.0000 0.0000 37.2022 37.2022 42.0595 42.0595 42.0595 42.0595 0.0000
F7 37.2022 75.3260 37.8021 11.6619 61.2699 14.4222 37.2022 0.0000 24.7588 67.0298 37.2022 37.2022 0.0000 0.0000 24.7588 24.7588 67.0298 67.0298 37.2022
F8 42.0595 63.1585 13.9284 24.3516 58.8982 39.0512 42.0595 24.7588 0.0000 53.8516 42.0595 42.0595 24.7588 24.7588 0.0000 0.0000 53.8516 53.8516 42.0595
F9 42.0595 9.4340 44.6542 73.9797 27.7308 75.6637 42.0595 67.0298 53.8516 0.0000 42.0595 42.0595 67.0298 67.0298 53.8516 53.8516 0.0000 0.0000 42.0595
F6_1 0.0000 47.4342 45.0000 48.1664 25.4951 39.2938 0.0000 37.2022 42.0595 42.0595 0.0000 0.0000 37.2022 37.2022 42.0595 42.0595 42.0595 42.0595 0.0000
F6_2 0.0000 47.4342 45.0000 48.1664 25.4951 39.2938 0.0000 37.2022 42.0595 42.0595 0.0000 0.0000 37.2022 37.2022 42.0595 42.0595 42.0595 42.0595 0.0000
F7_1 37.2022 75.3260 37.8021 11.6619 61.2699 14.4222 37.2022 0.0000 24.7588 67.0298 37.2022 37.2022 0.0000 0.0000 24.7588 24.7588 67.0298 67.0298 37.2022
F7_2 37.2022 75.3260 37.8021 11.6619 61.2699 14.4222 37.2022 0.0000 24.7588 67.0298 37.2022 37.2022 0.0000 0.0000 24.7588 24.7588 67.0298 67.0298 37.2022
F8_1 42.0595 63.1585 13.9284 24.3516 58.8982 39.0512 42.0595 24.7588 0.0000 53.8516 42.0595 42.0595 24.7588 24.7588 0.0000 0.0000 53.8516 53.8516 42.0595
F8_2 42.0595 63.1585 13.9284 24.3516 58.8982 39.0512 42.0595 24.7588 0.0000 53.8516 42.0595 42.0595 24.7588 24.7588 0.0000 0.0000 53.8516 53.8516 42.0595
F9_1 42.0595 9.4340 44.6542 73.9797 27.7308 75.6637 42.0595 67.0298 53.8516 0.0000 42.0595 42.0595 67.0298 67.0298 53.8516 53.8516 0.0000 0.0000 42.0595
F9_2 42.0595 9.4340 44.6542 73.9797 27.7308 75.6637 42.0595 67.0298 53.8516 0.0000 42.0595 42.0595 67.0298 67.0298 53.8516 53.8516 0.0000 0.0000 42.0595
Nσ 0.0000 47.4342 45.0000 48.1664 25.4951 39.2938 0.0000 37.2022 42.0595 42.0595 0.0000 0.0000 37.2022 37.2022 42.0595 42.0595 42.0595 42.0595 0.0000
;

param t : N0 C1 C2 C3 C4 C5 F6 F7 F8 F9 F6_1 F6_2 F7_1 F7_2 F8_1 F8_2 F9_1 F9_2 Nσ :=
N0 0.0000 47.4342 45.0000 48.1664 25.4951 39.2938 0.0000 37.2022 42.0595 42.0595 0.0000 0.0000 37.2022 37.2022 42.0595 42.0595 42.0595 42.0595 0.0000
C1 47.4342 0.0000 54.0833 82.7647 28.2843 83.1505 47.4342 75.3260 63.1585 9.4340 47.4342 47.4342 75.3260 75.3260 63.1585 63.1585 9.4340 9.4340 47.4342
C2 45.0000 54.0833 0.0000 38.2753 55.9017 51.6624 45.0000 37.8021 13.9284 44.6542 45.0000 45.0000 37.8021 37.8021 13.9284 13.9284 44.6542 44.6542 45.0000
C3 48.1664 82.7647 38.2753 0.0000 71.3442 22.0907 48.1664 11.6619 24.3516 73.9797 48.1664 48.1664 11.6619 11.6619 24.3516 24.3516 73.9797 73.9797 48.1664
C4 25.4951 28.2843 55.9017 71.3442 0.0000 64.7611 25.4951 61.2699 58.8982 27.7308 25.4951 25.4951 61.2699 61.2699 58.8982 58.8982 27.7308 27.7308 25.4951
C5 39.2938 83.1505 51.6624 22.0907 64.7611 0.0000 39.2938 14.4222 39.0512 75.6637 39.2938 39.2938 14.4222 14.4222 39.0512 39.0512 75.6637 75.6637 39.2938
F6 0.0000 47.4342 45.0000 48.1664 25.4951 39.2938 0.0000 37.2022 42.0595 42.0595 0.0000 0.0000 37.2022 37.2022 42.0595 42.0595 42.0595 42.0595 0.0000
F7 37.2022 75.3260 37.8021 11.6619 61.2699 14.4222 37.2022 0.0000 24.7588 67.0298 37.2022 37.2022 0.0000 0.0000 24.7588 24.7588 67.0298 67.0298 37.2022
F8 42.0595 63.1585 13.9284 24.3516 58.8982 39.0512 42.0595 24.7588 0.0000 53.8516 42.0595 42.0595 24.7588 24.7588 0.0000 0.0000 53.8516 53.8516 42.0595
F9 42.0595 9.4340 44.6542 73.9797 27.7308 75.6637 42.0595 67.0298 53.8516 0.0000 42.0595 42.0595 67.0298 67.0298 53.8516 53.8516 0.0000 0.0000 42.0595
F6_1 0.0000 47.4342 45.0000 48.1664 25.4951 39.2938 0.0000 37.2022 42.0595 42.0595 0.0000 0.0000 37.2022 37.2022 42.0595 42.0595 42.0595 42.0595 0.0000
F6_2 0.0000 47.4342 45.0000 48.1664 25.4951 39.2938 0.0000 37.2022 42.0595 42.0595 0.0000 0.0000 37.2022 37.2022 42.0595 42.0595 42.0595 42.0595 0.0000
F7_1 37.2022 75.3260 37.8021 11.6619 61.2699 14.4222 37.2022 0.0000 24.7588 67.0298 37.2022 37.2022 0.0000 0.0000 24.7588 24.7588 67.0298 67.0298 37.2022
F7_2 37.2022 75.3260 37.8021 11.6619 61.2699 14.4222 37.2022 0.0000 24.7588 67.0298 37.2022 37.2022 0.0000 0.0000 24.7588 24.7588 67.0298 67.0298 37.2022
F8_1 42.0595 63.1585 13.9284 24.3516 58.8982 39.0512 42.0595 24.7588 0.0000 53.8516 42.0595 42.0595 24.7588 24.7588 0.0000 0.0000 53.8516 53.8516 42.0595
F8_2 42.0595 63.1585 13.9284 24.3516 58.8982 39.0512 42.0595 24.7588 0.0000 53.8516 42.0595 42.0595 24.7588 24.7588 0.0000 0.0000 53.8516 53.8516 42.0595
F9_1 42.0595 9.4340 44.6542 73.9797 27.7308 75.6637 42.0595 67.0298 53.8516 0.0000 42.0595 42.0595 67.0298 67.0298 53.8516 53.8516 0.0000 0.0000 42.0595
F9_2 42.0595 9.4340 44.6542 73.9797 27.7308 75.6637 42.0595 67.0298 53.8516 0.0000 42.0595 42.0595 67.0298 67.0298 53.8516 53.8516 0.0000 0.0000 42.0595
Nσ 0.0000 47.4342 45.0000 48.1664 25.4951 39.2938 0.0000 37.2022 42.0595 42.0595 0.0000 0.0000 37.2022 37.2022 42.0595 42.0595 42.0595 42.0595 0.0000
;